# Instance created by Brandimarte (1993)
90 75 8
0 1
1 2
2 3
3 4
4 5
5 6
6 7
8 9
9 10
10 11
11 12
12 13
13 14
15 16
16 17
17 18
18 19
19 20
21 22
22 23
23 24
24 25
26 27
27 28
28 29
29 30
30 31
31 32
33 34
34 35
35 36
36 37
37 38
38 39
39 40
40 41
42 43
43 44
44 45
45 46
47 48
48 49
49 50
50 51
51 52
53 54
54 55
55 56
56 57
57 58
58 59
59 60
60 61
62 63
63 64
64 65
65 66
67 68
68 69
69 70
71 72
72 73
73 74
74 75
75 76
77 78
78 79
79 80
81 82
82 83
84 85
85 86
86 87
87 88
88 89
1 0 6
2 0 6 6 9
2 5 7 2 1
2 3 2 6 5
3 0 8 2 9 7 9
3 1 3 3 8 2 2
2 4 5 5 7
2 5 1 3 7
1 5 1
2 5 1 3 7
1 0 6
2 5 7 2 1
3 1 3 3 8 2 2
1 5 2
1 6 2
1 5 1
3 1 3 3 8 2 2
3 2 2 6 1 3 4
2 3 2 6 5
2 0 7 2 7
2 3 4 2 1
1 6 2
1 0 6
2 0 6 6 9
2 5 7 2 1
2 3 5 4 7
1 6 2
2 0 6 6 9
2 3 4 2 1
3 0 8 2 9 7 9
2 0 7 2 7
3 1 3 3 8 2 2
2 3 5 4 7
1 5 2
2 3 4 2 1
3 2 2 6 1 3 4
2 5 1 3 7
2 3 5 4 7
3 0 8 2 9 7 9
2 0 7 2 7
1 5 1
2 0 6 6 9
2 4 5 5 7
2 0 7 2 7
2 5 1 3 7
1 5 2
2 5 7 2 1
2 3 5 4 7
2 4 5 5 7
3 1 3 3 8 2 2
1 5 2
1 5 1
2 0 6 6 9
1 0 6
2 0 6 6 9
2 3 4 2 1
3 0 8 2 9 7 9
2 3 2 6 5
2 5 1 3 7
1 6 2
2 0 7 2 7
3 1 3 3 8 2 2
2 4 5 5 7
1 0 6
1 6 2
2 3 5 4 7
2 0 6 6 9
3 0 8 2 9 7 9
1 0 6
3 1 3 3 8 2 2
2 3 2 6 5
2 3 2 6 5
1 5 1
1 0 6
2 0 7 2 7
3 0 8 2 9 7 9
1 6 2
1 5 2
2 5 7 2 1
2 5 1 3 7
2 4 5 5 7
2 4 5 5 7
1 5 1
2 3 2 6 5
2 3 5 4 7
1 6 2
3 0 8 2 9 7 9
3 1 3 3 8 2 2
3 2 2 6 1 3 4
1 0 6
